p cnf 58 208
2 -1 0
2 1 0
-4 1 0
-4 1 0
-1 4 0
-6 4 0
-6 -5 0
-4 5 6 0
3 -6 -7 0
-3 6 -7 0
3 6 7 0
-3 -6 7 0
-8 9 -10 0
8 -9 -10 0
-8 -9 10 0
8 9 10 0
-10 11 0
10 11 0
-13 -12 0
-13 9 0
12 -9 13 0
11 -13 -14 0
-11 13 -14 0
11 13 14 0
-11 -13 14 0
-15 -7 0
-15 14 0
7 -14 15 0
-2 -15 -16 0
2 15 -16 0
-2 15 16 0
2 -15 16 0
-8 12 -18 0
8 -12 -18 0
-8 -12 18 0
8 12 18 0
-19 -17 0
-19 -18 0
17 18 19 0
20 19 0
20 -13 0
-19 13 -20 0
-21 4 0
-21 20 0
-4 -20 21 0
22 16 0
22 -21 0
-16 21 -22 0
23 17 0
23 -9 0
-17 9 -23 0
-24 -18 0
-24 12 0
18 -12 24 0
-9 -24 -25 0
9 24 -25 0
-9 24 25 0
9 -24 25 0
-26 -8 0
-26 25 0
8 -25 26 0
-26 7 -27 0
26 -7 -27 0
-26 -7 27 0
26 7 27 0
28 -23 0
28 27 0
23 -27 -28 0
-29 -24 0
-29 8 0
24 -8 29 0
-28 -29 -30 0
28 29 -30 0
-28 29 30 0
28 -29 30 0
-32 -31 0
-32 -20 0
31 20 32 0
33 3 0
33 31 0
-3 -31 -33 0
-32 -33 -34 0
32 33 -34 0
-32 33 34 0
32 -33 34 0
-35 -6 0
-35 -6 0
6 35 0
-35 -5 -36 0
35 5 -36 0
-35 5 36 0
35 -5 36 0
37 -34 0
37 -36 0
34 36 -37 0
-38 30 0
-38 37 0
-30 -37 38 0
39 6 0
39 -19 0
-6 19 -39 0
25 6 -40 0
-25 -6 -40 0
25 -6 40 0
-25 6 40 0
41 25 0
41 40 0
-25 -40 -41 0
-42 -25 0
-42 41 0
25 -41 42 0
1 -35 -43 0
-1 35 -43 0
1 35 43 0
-1 -35 43 0
44 -43 0
44 8 0
43 -8 -44 0
-44 -45 -46 0
44 45 -46 0
-44 45 46 0
44 -45 46 0
47 42 0
47 -46 0
-42 46 -47 0
48 39 0
48 47 0
-39 -47 -48 0
-43 -12 -49 0
43 12 -49 0
-43 12 49 0
43 -12 49 0
50 49 0
50 -31 0
-49 31 -50 0
-5 43 -51 0
5 -43 -51 0
-5 -43 51 0
5 43 51 0
52 -50 0
52 -51 0
50 51 -52 0
10 -53 -54 0
-10 53 -54 0
10 53 54 0
-10 -53 54 0
55 52 0
55 54 0
-52 -54 -55 0
-56 48 0
-56 55 0
-48 -55 56 0
-57 -38 0
-57 56 0
38 -56 57 0
22 -57 -58 0
-22 57 -58 0
22 57 58 0
-22 -57 58 0
17 -33 43 -18 31 53 0
13 -30 -41 0
-2 -58 -33 -12 0
36 -22 -54 50 0
-52 -54 -17 0
5 11 0
-46 -36 0
-31 7 -47 0
47 -51 -18 0
42 18 -46 0
18 -1 -5 46 -7 0
13 29 52 36 -49 0
-21 37 24 -43 3 0
-3 41 27 -9 7 0
-40 -28 35 0
-58 43 28 -40 0
-43 15 2 -41 7 0
-6 9 -42 22 0
36 25 0
1 35 25 -8 0
-47 30 -58 34 54 7 0
-28 -4 -26 12 9 0
-7 57 -46 -11 35 0
-46 33 0
-16 -29 36 -57 -13 0
15 19 11 45 52 0
-8 -29 -10 0
-16 58 0
-8 -2 0
-6 40 -33 -20 -13 0
53 7 15 24 -50 18 0
44 -57 0
-49 -25 -35 18 -41 0
22 21 -48 47 -57 -24 0
18 -22 -38 -42 49 -36 0
18 4 25 -19 -57 0
14 53 -7 0
-52 26 -58 37 0
-35 -19 -15 0
46 11 0
31 4 -36 -14 0
1 38 28 0
13 -16 -4 29 0
-28 -47 0
-9 -5 -25 0
-47 23 -20 -26 0
-53 42 10 0
49 16 50 42 -28 32 0
58 0
